p cnf 308 872
c weights 1.0 1.0 2.718281828459045 0.36787944117144233 2.718281828459045 0.36787944117144233 2.718281828459045 0.36787944117144233 2.718281828459045 0.36787944117144233 2.718281828459045 0.36787944117144233 2.718281828459045 0.36787944117144233 1.0 1.0 2.718281828459045 0.36787944117144233 2.718281828459045 0.36787944117144233 2.718281828459045 0.36787944117144233 2.718281828459045 0.36787944117144233 1.0 1.0 2.718281828459045 0.36787944117144233 2.718281828459045 0.36787944117144233 2.718281828459045 0.36787944117144233 2.718281828459045 0.36787944117144233 2.718281828459045 0.36787944117144233 1.0 1.0 2.718281828459045 0.36787944117144233 2.718281828459045 0.36787944117144233 2.718281828459045 0.36787944117144233 2.718281828459045 0.36787944117144233 2.718281828459045 0.36787944117144233 2.718281828459045 0.36787944117144233 2.718281828459045 0.36787944117144233 2.718281828459045 0.36787944117144233 2.718281828459045 0.36787944117144233 1.0 1.0 2.718281828459045 0.36787944117144233 2.718281828459045 0.36787944117144233 2.718281828459045 0.36787944117144233 2.718281828459045 0.36787944117144233 2.718281828459045 0.36787944117144233 2.718281828459045 0.36787944117144233 2.718281828459045 0.36787944117144233 1.0 1.0 2.718281828459045 0.36787944117144233 2.718281828459045 0.36787944117144233 2.718281828459045 0.36787944117144233 2.718281828459045 0.36787944117144233 2.718281828459045 0.36787944117144233 2.718281828459045 0.36787944117144233 1.0 1.0 2.718281828459045 0.36787944117144233 2.718281828459045 0.36787944117144233 2.718281828459045 0.36787944117144233 2.718281828459045 0.36787944117144233 2.718281828459045 0.36787944117144233 1.0 1.0 2.718281828459045 0.36787944117144233 2.718281828459045 0.36787944117144233 2.718281828459045 0.36787944117144233 2.718281828459045 0.36787944117144233 2.718281828459045 0.36787944117144233 1.0 1.0 2.718281828459045 0.36787944117144233 2.718281828459045 0.36787944117144233 2.718281828459045 0.36787944117144233 2.718281828459045 0.36787944117144233 2.718281828459045 0.36787944117144233 2.718281828459045 0.36787944117144233 2.718281828459045 0.36787944117144233 1.0 1.0 2.718281828459045 0.36787944117144233 2.718281828459045 0.36787944117144233 2.718281828459045 0.36787944117144233 1.0 1.0 2.718281828459045 0.36787944117144233 2.718281828459045 0.36787944117144233 2.718281828459045 0.36787944117144233 2.718281828459045 0.36787944117144233 2.718281828459045 0.36787944117144233 1.0 1.0 2.718281828459045 0.36787944117144233 2.718281828459045 0.36787944117144233 2.718281828459045 0.36787944117144233 2.718281828459045 0.36787944117144233 2.718281828459045 0.36787944117144233 2.718281828459045 0.36787944117144233 1.0 1.0 2.718281828459045 0.36787944117144233 2.718281828459045 0.36787944117144233 2.718281828459045 0.36787944117144233 2.718281828459045 0.36787944117144233 2.718281828459045 0.36787944117144233 2.718281828459045 0.36787944117144233 1.0 1.0 2.718281828459045 0.36787944117144233 2.718281828459045 0.36787944117144233 1.0 1.0 2.718281828459045 0.36787944117144233 2.718281828459045 0.36787944117144233 2.718281828459045 0.36787944117144233 2.718281828459045 0.36787944117144233 2.718281828459045 0.36787944117144233 1.0 1.0 2.718281828459045 0.36787944117144233 2.718281828459045 0.36787944117144233 1.0 1.0 2.718281828459045 0.36787944117144233 2.718281828459045 0.36787944117144233 2.718281828459045 0.36787944117144233 2.718281828459045 0.36787944117144233 2.718281828459045 0.36787944117144233 1.0 1.0 2.718281828459045 0.36787944117144233 2.718281828459045 0.36787944117144233 2.718281828459045 0.36787944117144233 2.718281828459045 0.36787944117144233 2.718281828459045 0.36787944117144233 2.718281828459045 0.36787944117144233 2.718281828459045 0.36787944117144233 1.0 1.0 2.718281828459045 0.36787944117144233 2.718281828459045 0.36787944117144233 1.0 1.0 2.718281828459045 0.36787944117144233 2.718281828459045 0.36787944117144233 2.718281828459045 0.36787944117144233 2.718281828459045 0.36787944117144233 1.0 1.0 2.718281828459045 0.36787944117144233 2.718281828459045 0.36787944117144233 2.718281828459045 0.36787944117144233 2.718281828459045 0.36787944117144233 1.0 1.0 2.718281828459045 0.36787944117144233 1.0 1.0 2.718281828459045 0.36787944117144233 2.718281828459045 0.36787944117144233 2.718281828459045 0.36787944117144233 2.718281828459045 0.36787944117144233 1.0 1.0 2.718281828459045 0.36787944117144233 2.718281828459045 0.36787944117144233 1.0 1.0 2.718281828459045 0.36787944117144233 2.718281828459045 0.36787944117144233 2.718281828459045 0.36787944117144233 2.718281828459045 0.36787944117144233 1.0 1.0 2.718281828459045 0.36787944117144233 2.718281828459045 0.36787944117144233 2.718281828459045 0.36787944117144233 1.0 1.0 2.718281828459045 0.36787944117144233 2.718281828459045 0.36787944117144233 2.718281828459045 0.36787944117144233 2.718281828459045 0.36787944117144233 1.0 1.0 1.0 1.0 2.718281828459045 0.36787944117144233 2.718281828459045 0.36787944117144233 2.718281828459045 0.36787944117144233 1.0 1.0 2.718281828459045 0.36787944117144233 2.718281828459045 0.36787944117144233 1.0 1.0 2.718281828459045 0.36787944117144233 1.0 1.0 2.718281828459045 0.36787944117144233 2.718281828459045 0.36787944117144233 2.718281828459045 0.36787944117144233 2.718281828459045 0.36787944117144233 2.718281828459045 0.36787944117144233 1.0 1.0 2.718281828459045 0.36787944117144233 2.718281828459045 0.36787944117144233 2.718281828459045 0.36787944117144233 2.718281828459045 0.36787944117144233 2.718281828459045 0.36787944117144233 1.0 1.0 2.718281828459045 0.36787944117144233 2.718281828459045 0.36787944117144233 2.718281828459045 0.36787944117144233 2.718281828459045 0.36787944117144233 1.0 1.0 2.718281828459045 0.36787944117144233 2.718281828459045 0.36787944117144233 2.718281828459045 0.36787944117144233 1.0 1.0 2.718281828459045 0.36787944117144233 1.0 1.0 2.718281828459045 0.36787944117144233 1.0 1.0 2.718281828459045 0.36787944117144233 2.718281828459045 0.36787944117144233 2.718281828459045 0.36787944117144233 2.718281828459045 0.36787944117144233 1.0 1.0 2.718281828459045 0.36787944117144233 2.718281828459045 0.36787944117144233 2.718281828459045 0.36787944117144233 2.718281828459045 0.36787944117144233 2.718281828459045 0.36787944117144233 1.0 1.0 2.718281828459045 0.36787944117144233 2.718281828459045 0.36787944117144233 2.718281828459045 0.36787944117144233 2.718281828459045 0.36787944117144233 2.718281828459045 0.36787944117144233 1.0 1.0 2.718281828459045 0.36787944117144233 1.0 1.0 1.0 1.0 2.718281828459045 0.36787944117144233 2.718281828459045 0.36787944117144233 2.718281828459045 0.36787944117144233 2.718281828459045 0.36787944117144233 2.718281828459045 0.36787944117144233 1.0 1.0 2.718281828459045 0.36787944117144233 2.718281828459045 0.36787944117144233 2.718281828459045 0.36787944117144233 1.0 1.0 2.718281828459045 0.36787944117144233 2.718281828459045 0.36787944117144233 2.718281828459045 0.36787944117144233 1.0 1.0 2.718281828459045 0.36787944117144233 2.718281828459045 0.36787944117144233 2.718281828459045 0.36787944117144233 1.0 1.0 1.0 1.0 2.718281828459045 0.36787944117144233 2.718281828459045 0.36787944117144233 2.718281828459045 0.36787944117144233 2.718281828459045 0.36787944117144233 1.0 1.0 2.718281828459045 0.36787944117144233 2.718281828459045 0.36787944117144233 2.718281828459045 0.36787944117144233 1.0 1.0 2.718281828459045 0.36787944117144233 2.718281828459045 0.36787944117144233 1.0 1.0 1.0 1.0 1.0 1.0 2.718281828459045 0.36787944117144233 2.718281828459045 0.36787944117144233 2.718281828459045 0.36787944117144233 2.718281828459045 0.36787944117144233 2.718281828459045 0.36787944117144233 2.718281828459045 0.36787944117144233 1.0 1.0 2.718281828459045 0.36787944117144233 2.718281828459045 0.36787944117144233 2.718281828459045 0.36787944117144233 1.0 1.0 1.0 1.0 2.718281828459045 0.36787944117144233 1.0 1.0 2.718281828459045 0.36787944117144233 1.0 1.0 2.718281828459045 0.36787944117144233 2.718281828459045 0.36787944117144233 1.0 1.0 1.0 1.0 1.0 1.0 2.718281828459045 0.36787944117144233 1.0 1.0 2.718281828459045 0.36787944117144233 1.0 1.0 2.718281828459045 0.36787944117144233 2.718281828459045 0.36787944117144233 1.0 1.0 2.718281828459045 0.36787944117144233 1.0 1.0 2.718281828459045 0.36787944117144233 2.718281828459045 0.36787944117144233 1.0 1.0 2.718281828459045 0.36787944117144233 1.0 1.0 2.718281828459045 0.36787944117144233 1.0 1.0 1.0 1.0 2.718281828459045 0.36787944117144233 1.0 1.0 2.718281828459045 0.36787944117144233 1.0 1.0 2.718281828459045 0.36787944117144233 1.0 1.0 2.718281828459045 0.36787944117144233 2.718281828459045 0.36787944117144233 1.0 1.0 2.718281828459045 0.36787944117144233 2.718281828459045 0.36787944117144233 1.0 1.0 2.718281828459045 0.36787944117144233 1.0 1.0 1.0 1.0 2.718281828459045 0.36787944117144233 1.0 1.0 2.718281828459045 0.36787944117144233 1.0 1.0 1.0 1.0 1.0 1.0 1.0 1.0 1.0 1.0 1.0 1.0 1.0 1.0 1.0 1.0 1.0 1.0 1.0 1.0 1.0 1.0 1.0 1.0 1.0 1.0
2 1 68 0
2 -1 -68 0
-2 1 -68 0
-2 -1 68 0
3 1 117 0
3 -1 -117 0
-3 1 -117 0
-3 -1 117 0
4 1 122 0
4 -1 -122 0
-4 1 -122 0
-4 -1 122 0
5 1 167 0
5 -1 -167 0
-5 1 -167 0
-5 -1 167 0
6 1 267 0
6 -1 -267 0
-6 1 -267 0
-6 -1 267 0
7 1 304 0
7 -1 -304 0
-7 1 -304 0
-7 -1 304 0
9 8 212 0
9 -8 -212 0
-9 8 -212 0
-9 -8 212 0
10 8 220 0
10 -8 -220 0
-10 8 -220 0
-10 -8 220 0
11 8 239 0
11 -8 -239 0
-11 8 -239 0
-11 -8 239 0
12 8 258 0
12 -8 -258 0
-12 8 -258 0
-12 -8 258 0
14 13 68 0
14 -13 -68 0
-14 13 -68 0
-14 -13 68 0
15 13 137 0
15 -13 -137 0
-15 13 -137 0
-15 -13 137 0
16 13 152 0
16 -13 -152 0
-16 13 -152 0
-16 -13 152 0
17 13 224 0
17 -13 -224 0
-17 13 -224 0
-17 -13 224 0
18 13 305 0
18 -13 -305 0
-18 13 -305 0
-18 -13 305 0
20 19 56 0
20 -19 -56 0
-20 19 -56 0
-20 -19 56 0
21 19 167 0
21 -19 -167 0
-21 19 -167 0
-21 -19 167 0
22 19 173 0
22 -19 -173 0
-22 19 -173 0
-22 -19 173 0
23 19 216 0
23 -19 -216 0
-23 19 -216 0
-23 -19 216 0
24 19 267 0
24 -19 -267 0
-24 19 -267 0
-24 -19 267 0
25 19 294 0
25 -19 -294 0
-25 19 -294 0
-25 -19 294 0
26 19 301 0
26 -19 -301 0
-26 19 -301 0
-26 -19 301 0
27 19 303 0
27 -19 -303 0
-27 19 -303 0
-27 -19 303 0
28 19 306 0
28 -19 -306 0
-28 19 -306 0
-28 -19 306 0
30 29 122 0
30 -29 -122 0
-30 29 -122 0
-30 -29 122 0
31 29 129 0
31 -29 -129 0
-31 29 -129 0
-31 -29 129 0
32 29 167 0
32 -29 -167 0
-32 29 -167 0
-32 -29 167 0
33 29 259 0
33 -29 -259 0
-33 29 -259 0
-33 -29 259 0
34 29 269 0
34 -29 -269 0
-34 29 -269 0
-34 -29 269 0
35 29 306 0
35 -29 -306 0
-35 29 -306 0
-35 -29 306 0
36 29 307 0
36 -29 -307 0
-36 29 -307 0
-36 -29 307 0
38 37 151 0
38 -37 -151 0
-38 37 -151 0
-38 -37 151 0
39 37 203 0
39 -37 -203 0
-39 37 -203 0
-39 -37 203 0
40 37 225 0
40 -37 -225 0
-40 37 -225 0
-40 -37 225 0
41 37 230 0
41 -37 -230 0
-41 37 -230 0
-41 -37 230 0
42 37 258 0
42 -37 -258 0
-42 37 -258 0
-42 -37 258 0
43 37 302 0
43 -37 -302 0
-43 37 -302 0
-43 -37 302 0
45 44 100 0
45 -44 -100 0
-45 44 -100 0
-45 -44 100 0
46 44 206 0
46 -44 -206 0
-46 44 -206 0
-46 -44 206 0
47 44 262 0
47 -44 -262 0
-47 44 -262 0
-47 -44 262 0
48 44 269 0
48 -44 -269 0
-48 44 -269 0
-48 -44 269 0
49 44 294 0
49 -44 -294 0
-49 44 -294 0
-49 -44 294 0
51 50 134 0
51 -50 -134 0
-51 50 -134 0
-51 -50 134 0
52 50 156 0
52 -50 -156 0
-52 50 -156 0
-52 -50 156 0
53 50 294 0
53 -50 -294 0
-53 50 -294 0
-53 -50 294 0
54 50 306 0
54 -50 -306 0
-54 50 -306 0
-54 -50 306 0
55 50 307 0
55 -50 -307 0
-55 50 -307 0
-55 -50 307 0
57 56 74 0
57 -56 -74 0
-57 56 -74 0
-57 -56 74 0
58 56 134 0
58 -56 -134 0
-58 56 -134 0
-58 -56 134 0
59 56 146 0
59 -56 -146 0
-59 56 -146 0
-59 -56 146 0
60 56 184 0
60 -56 -184 0
-60 56 -184 0
-60 -56 184 0
61 56 224 0
61 -56 -224 0
-61 56 -224 0
-61 -56 224 0
62 56 250 0
62 -56 -250 0
-62 56 -250 0
-62 -56 250 0
63 56 283 0
63 -56 -283 0
-63 56 -283 0
-63 -56 283 0
65 64 161 0
65 -64 -161 0
-65 64 -161 0
-65 -64 161 0
66 64 279 0
66 -64 -279 0
-66 64 -279 0
-66 -64 279 0
67 64 297 0
67 -64 -297 0
-67 64 -297 0
-67 -64 297 0
69 68 197 0
69 -68 -197 0
-69 68 -197 0
-69 -68 197 0
70 68 267 0
70 -68 -267 0
-70 68 -267 0
-70 -68 267 0
71 68 296 0
71 -68 -296 0
-71 68 -296 0
-71 -68 296 0
72 68 300 0
72 -68 -300 0
-72 68 -300 0
-72 -68 300 0
73 68 302 0
73 -68 -302 0
-73 68 -302 0
-73 -68 302 0
75 74 205 0
75 -74 -205 0
-75 74 -205 0
-75 -74 205 0
76 74 250 0
76 -74 -250 0
-76 74 -250 0
-76 -74 250 0
77 74 259 0
77 -74 -259 0
-77 74 -259 0
-77 -74 259 0
78 74 294 0
78 -74 -294 0
-78 74 -294 0
-78 -74 294 0
79 74 301 0
79 -74 -301 0
-79 74 -301 0
-79 -74 301 0
80 74 308 0
80 -74 -308 0
-80 74 -308 0
-80 -74 308 0
82 81 134 0
82 -81 -134 0
-82 81 -134 0
-82 -81 134 0
83 81 224 0
83 -81 -224 0
-83 81 -224 0
-83 -81 224 0
84 81 225 0
84 -81 -225 0
-84 81 -225 0
-84 -81 225 0
85 81 250 0
85 -81 -250 0
-85 81 -250 0
-85 -81 250 0
86 81 262 0
86 -81 -262 0
-86 81 -262 0
-86 -81 262 0
87 81 281 0
87 -81 -281 0
-87 81 -281 0
-87 -81 281 0
89 88 151 0
89 -88 -151 0
-89 88 -151 0
-89 -88 151 0
90 88 184 0
90 -88 -184 0
-90 88 -184 0
-90 -88 184 0
92 91 114 0
92 -91 -114 0
-92 91 -114 0
-92 -91 114 0
93 91 167 0
93 -91 -167 0
-93 91 -167 0
-93 -91 167 0
94 91 197 0
94 -91 -197 0
-94 91 -197 0
-94 -91 197 0
95 91 239 0
95 -91 -239 0
-95 91 -239 0
-95 -91 239 0
96 91 283 0
96 -91 -283 0
-96 91 -283 0
-96 -91 283 0
98 97 167 0
98 -97 -167 0
-98 97 -167 0
-98 -97 167 0
99 97 297 0
99 -97 -297 0
-99 97 -297 0
-99 -97 297 0
101 100 106 0
101 -100 -106 0
-101 100 -106 0
-101 -100 106 0
102 100 225 0
102 -100 -225 0
-102 100 -225 0
-102 -100 225 0
103 100 260 0
103 -100 -260 0
-103 100 -260 0
-103 -100 260 0
104 100 269 0
104 -100 -269 0
-104 100 -269 0
-104 -100 269 0
105 100 292 0
105 -100 -292 0
-105 100 -292 0
-105 -100 292 0
107 106 197 0
107 -106 -197 0
-107 106 -197 0
-107 -106 197 0
108 106 206 0
108 -106 -206 0
-108 106 -206 0
-108 -106 206 0
109 106 225 0
109 -106 -225 0
-109 106 -225 0
-109 -106 225 0
110 106 239 0
110 -106 -239 0
-110 106 -239 0
-110 -106 239 0
111 106 258 0
111 -106 -258 0
-111 106 -258 0
-111 -106 258 0
112 106 281 0
112 -106 -281 0
-112 106 -281 0
-112 -106 281 0
113 106 302 0
113 -106 -302 0
-113 106 -302 0
-113 -106 302 0
115 114 184 0
115 -114 -184 0
-115 114 -184 0
-115 -114 184 0
116 114 299 0
116 -114 -299 0
-116 114 -299 0
-116 -114 299 0
118 117 161 0
118 -117 -161 0
-118 117 -161 0
-118 -117 161 0
119 117 225 0
119 -117 -225 0
-119 117 -225 0
-119 -117 225 0
120 117 272 0
120 -117 -272 0
-120 117 -272 0
-120 -117 272 0
121 117 306 0
121 -117 -306 0
-121 117 -306 0
-121 -117 306 0
123 122 156 0
123 -122 -156 0
-123 122 -156 0
-123 -122 156 0
124 122 212 0
124 -122 -212 0
-124 122 -212 0
-124 -122 212 0
125 122 237 0
125 -122 -237 0
-125 122 -237 0
-125 -122 237 0
126 122 302 0
126 -122 -302 0
-126 122 -302 0
-126 -122 302 0
128 127 186 0
128 -127 -186 0
-128 127 -186 0
-128 -127 186 0
130 129 167 0
130 -129 -167 0
-130 129 -167 0
-130 -129 167 0
131 129 182 0
131 -129 -182 0
-131 129 -182 0
-131 -129 182 0
132 129 251 0
132 -129 -251 0
-132 129 -251 0
-132 -129 251 0
133 129 305 0
133 -129 -305 0
-133 129 -305 0
-133 -129 305 0
135 134 220 0
135 -134 -220 0
-135 134 -220 0
-135 -134 220 0
136 134 283 0
136 -134 -283 0
-136 134 -283 0
-136 -134 283 0
138 137 173 0
138 -137 -173 0
-138 137 -173 0
-138 -137 173 0
139 137 197 0
139 -137 -197 0
-139 137 -197 0
-139 -137 197 0
140 137 230 0
140 -137 -230 0
-140 137 -230 0
-140 -137 230 0
141 137 304 0
141 -137 -304 0
-141 137 -304 0
-141 -137 304 0
143 142 283 0
143 -142 -283 0
-143 142 -283 0
-143 -142 283 0
144 142 291 0
144 -142 -291 0
-144 142 -291 0
-144 -142 291 0
145 142 294 0
145 -142 -294 0
-145 142 -294 0
-145 -142 294 0
147 146 184 0
147 -146 -184 0
-147 146 -184 0
-147 -146 184 0
148 146 203 0
148 -146 -203 0
-148 146 -203 0
-148 -146 203 0
149 146 250 0
149 -146 -250 0
-149 146 -250 0
-149 -146 250 0
150 146 277 0
150 -146 -277 0
-150 146 -277 0
-150 -146 277 0
153 152 161 0
153 -152 -161 0
-153 152 -161 0
-153 -152 161 0
154 152 253 0
154 -152 -253 0
-154 152 -253 0
-154 -152 253 0
155 152 303 0
155 -152 -303 0
-155 152 -303 0
-155 -152 303 0
157 156 203 0
157 -156 -203 0
-157 156 -203 0
-157 -156 203 0
158 156 205 0
158 -156 -205 0
-158 156 -205 0
-158 -156 205 0
160 159 291 0
160 -159 -291 0
-160 159 -291 0
-160 -159 291 0
162 161 184 0
162 -161 -184 0
-162 161 -184 0
-162 -161 184 0
163 161 237 0
163 -161 -237 0
-163 161 -237 0
-163 -161 237 0
164 161 281 0
164 -161 -281 0
-164 161 -281 0
-164 -161 281 0
165 161 286 0
165 -161 -286 0
-165 161 -286 0
-165 -161 286 0
166 161 308 0
166 -161 -308 0
-166 161 -308 0
-166 -161 308 0
168 167 182 0
168 -167 -182 0
-168 167 -182 0
-168 -167 182 0
169 167 258 0
169 -167 -258 0
-169 167 -258 0
-169 -167 258 0
170 167 267 0
170 -167 -267 0
-170 167 -267 0
-170 -167 267 0
171 167 279 0
171 -167 -279 0
-171 167 -279 0
-171 -167 279 0
172 167 306 0
172 -167 -306 0
-172 167 -306 0
-172 -167 306 0
174 173 262 0
174 -173 -262 0
-174 173 -262 0
-174 -173 262 0
175 173 267 0
175 -173 -267 0
-175 173 -267 0
-175 -173 267 0
176 173 276 0
176 -173 -276 0
-176 173 -276 0
-176 -173 276 0
177 173 299 0
177 -173 -299 0
-177 173 -299 0
-177 -173 299 0
179 178 191 0
179 -178 -191 0
-179 178 -191 0
-179 -178 191 0
180 178 239 0
180 -178 -239 0
-180 178 -239 0
-180 -178 239 0
181 178 267 0
181 -178 -267 0
-181 178 -267 0
-181 -178 267 0
183 182 269 0
183 -182 -269 0
-183 182 -269 0
-183 -182 269 0
185 184 212 0
185 -184 -212 0
-185 184 -212 0
-185 -184 212 0
187 186 216 0
187 -186 -216 0
-187 186 -216 0
-187 -186 216 0
188 186 251 0
188 -186 -251 0
-188 186 -251 0
-188 -186 251 0
189 186 289 0
189 -186 -289 0
-189 186 -289 0
-189 -186 289 0
190 186 296 0
190 -186 -296 0
-190 186 -296 0
-190 -186 296 0
192 191 239 0
192 -191 -239 0
-192 191 -239 0
-192 -191 239 0
193 191 260 0
193 -191 -260 0
-193 191 -260 0
-193 -191 260 0
194 191 281 0
194 -191 -281 0
-194 191 -281 0
-194 -191 281 0
195 191 294 0
195 -191 -294 0
-195 191 -294 0
-195 -191 294 0
196 191 307 0
196 -191 -307 0
-196 191 -307 0
-196 -191 307 0
198 197 239 0
198 -197 -239 0
-198 197 -239 0
-198 -197 239 0
199 197 258 0
199 -197 -258 0
-199 197 -258 0
-199 -197 258 0
200 197 260 0
200 -197 -260 0
-200 197 -260 0
-200 -197 260 0
201 197 277 0
201 -197 -277 0
-201 197 -277 0
-201 -197 277 0
202 197 308 0
202 -197 -308 0
-202 197 -308 0
-202 -197 308 0
204 203 237 0
204 -203 -237 0
-204 203 -237 0
-204 -203 237 0
207 206 224 0
207 -206 -224 0
-207 206 -224 0
-207 -206 224 0
208 206 230 0
208 -206 -230 0
-208 206 -230 0
-208 -206 230 0
209 206 237 0
209 -206 -237 0
-209 206 -237 0
-209 -206 237 0
210 206 250 0
210 -206 -250 0
-210 206 -250 0
-210 -206 250 0
211 206 296 0
211 -206 -296 0
-211 206 -296 0
-211 -206 296 0
213 212 216 0
213 -212 -216 0
-213 212 -216 0
-213 -212 216 0
214 212 274 0
214 -212 -274 0
-214 212 -274 0
-214 -212 274 0
215 212 303 0
215 -212 -303 0
-215 212 -303 0
-215 -212 303 0
217 216 260 0
217 -216 -260 0
-217 216 -260 0
-217 -216 260 0
218 216 262 0
218 -216 -262 0
-218 216 -262 0
-218 -216 262 0
219 216 301 0
219 -216 -301 0
-219 216 -301 0
-219 -216 301 0
221 220 258 0
221 -220 -258 0
-221 220 -258 0
-221 -220 258 0
222 220 281 0
222 -220 -281 0
-222 220 -281 0
-222 -220 281 0
223 220 292 0
223 -220 -292 0
-223 220 -292 0
-223 -220 292 0
226 225 258 0
226 -225 -258 0
-226 225 -258 0
-226 -225 258 0
227 225 277 0
227 -225 -277 0
-227 225 -277 0
-227 -225 277 0
228 225 281 0
228 -225 -281 0
-228 225 -281 0
-228 -225 281 0
229 225 283 0
229 -225 -283 0
-229 225 -283 0
-229 -225 283 0
231 230 269 0
231 -230 -269 0
-231 230 -269 0
-231 -230 269 0
232 230 277 0
232 -230 -277 0
-232 230 -277 0
-232 -230 277 0
233 230 301 0
233 -230 -301 0
-233 230 -301 0
-233 -230 301 0
235 234 251 0
235 -234 -251 0
-235 234 -251 0
-235 -234 251 0
236 234 281 0
236 -234 -281 0
-236 234 -281 0
-236 -234 281 0
240 239 246 0
240 -239 -246 0
-240 239 -246 0
-240 -239 246 0
241 239 258 0
241 -239 -258 0
-241 239 -258 0
-241 -239 258 0
242 239 262 0
242 -239 -262 0
-242 239 -262 0
-242 -239 262 0
243 239 267 0
243 -239 -267 0
-243 239 -267 0
-243 -239 267 0
244 239 296 0
244 -239 -296 0
-244 239 -296 0
-244 -239 296 0
245 239 297 0
245 -239 -297 0
-245 239 -297 0
-245 -239 297 0
247 246 281 0
247 -246 -281 0
-247 246 -281 0
-247 -246 281 0
248 246 283 0
248 -246 -283 0
-248 246 -283 0
-248 -246 283 0
249 246 289 0
249 -246 -289 0
-249 246 -289 0
-249 -246 289 0
252 251 300 0
252 -251 -300 0
-252 251 -300 0
-252 -251 300 0
254 253 276 0
254 -253 -276 0
-254 253 -276 0
-254 -253 276 0
256 255 277 0
256 -255 -277 0
-256 255 -277 0
-256 -255 277 0
257 255 283 0
257 -255 -283 0
-257 255 -283 0
-257 -255 283 0
261 260 272 0
261 -260 -272 0
-261 260 -272 0
-261 -260 272 0
263 262 264 0
263 -262 -264 0
-263 262 -264 0
-263 -262 264 0
265 264 269 0
265 -264 -269 0
-265 264 -269 0
-265 -264 269 0
266 264 308 0
266 -264 -308 0
-266 264 -308 0
-266 -264 308 0
268 267 301 0
268 -267 -301 0
-268 267 -301 0
-268 -267 301 0
270 269 281 0
270 -269 -281 0
-270 269 -281 0
-270 -269 281 0
271 269 294 0
271 -269 -294 0
-271 269 -294 0
-271 -269 294 0
273 272 303 0
273 -272 -303 0
-273 272 -303 0
-273 -272 303 0
275 274 289 0
275 -274 -289 0
-275 274 -289 0
-275 -274 289 0
278 277 297 0
278 -277 -297 0
-278 277 -297 0
-278 -277 297 0
280 279 283 0
280 -279 -283 0
-280 279 -283 0
-280 -279 283 0
282 281 298 0
282 -281 -298 0
-282 281 -298 0
-282 -281 298 0
284 283 298 0
284 -283 -298 0
-284 283 -298 0
-284 -283 298 0
285 283 307 0
285 -283 -307 0
-285 283 -307 0
-285 -283 307 0
287 286 289 0
287 -286 -289 0
-287 286 -289 0
-287 -286 289 0
288 286 301 0
288 -286 -301 0
-288 286 -301 0
-288 -286 301 0
290 289 292 0
290 -289 -292 0
-290 289 -292 0
-290 -289 292 0
293 292 296 0
293 -292 -296 0
-293 292 -296 0
-293 -292 296 0
295 294 307 0
295 -294 -307 0
-295 294 -307 0
-295 -294 307 0
